
Daniool79:
1179      21        31        41        51        61        
12        22        32        42        52        62        
13        2379      33        43        53        63        
14        24        34        44        54        64        
1579      25        3579      45        55        65        

Daniool79:
1179      21        31        41        51        61        
12        22        32        42        52        62        
13        2379      33        43        53        63        
14        24        34        44        54        64        
1579      25        3579      45        55        65        

